120
150
51
55
45
59
46
56
51
59
43
59
60
50
50
55
55
44
45
52
56
40
47
57
47
43
52
41
45
49
56
59
43
52
52
51
46
56
58
51
41
52
51
54
48
43
55
57
52
52
41
47
51
49
58
50
51
50
59
52
43
41
50
48
49
52
52
55
50
41
52
47
50
52
48
56
58
51
51
42
59
46
52
55
56
41
46
49
57
44
57
40
51
51
42
55
59
59
56
43
49
59
49
50
57
56
48
46
45
50
42
49
44
52
55
59
43
45
43
51
48
59
